n = 28;
k = 3;
roles = [
{m, d},
{d, f},
{m, g},
{f, g},
{d, f},
{f, d},
{g, m},
{f, d},
{d, f},
{d, f},
{g, m},
{f, m},
{f, d},
{f, g},
{d, f},
{d, m},
{g, f},
{m, f},
{g, d},
{f, g},
{m, f},
{f, g},
{m, f},
{g, f},
{f, g},
{m, f},
{f, m},
{g, m}
];
num_pairs = 3;
player1 = [27, 8, 23];
player2 = [9, 13, 3];
